0 86.0
1 80.0
2 88.0
3 76.0
4 79.0
5 73.0
6 92.0
7 83.0
8 91.0
9 70.0
10 85.0
11 73.0
12 102.0
13 89.0
14 99.0
15 80.0
16 87.0
17 81.0
18 90.0
19 86.0
20 93.0
21 80.0
22 87.0
23 78.0
24 74.0
25 68.0
26 84.0
27 72.0
28 75.0
29 69.0
30 88.0
31 79.0
32 95.0
33 76.0
34 89.0
35 79.0
36 90.0
37 85.0
38 87.0
39 78.0
40 75.0
41 71.0
42 78.0
43 82.0
44 81.0
45 78.0
46 75.0
47 68.0
48 81.0
49 72.0
50 94.0
51 73.0
52 85.0
53 73.0
54 89.0
55 80.0
56 102.0
57 83.0
58 93.0
59 83.0
60 88.0
61 80.0
62 88.0
63 82.0
64 67.0
65 69.0
66 82.0
67 83.0
68 82.0
69 85.0
70 70.0
71 72.0
72 88.0
73 75.0
74 91.0
75 72.0
76 86.0
77 80.0
78 80.0
79 75.0
80 91.0
81 82.0
82 78.0
83 74.0
84 77.0
85 69.0
86 85.0
87 79.0
88 66.0
89 68.0
90 73.0
91 70.0
92 65.0
93 72.0
94 59.0
95 69.0
96 78.0
97 74.0
98 84.0
99 71.0
100 88.0
101 79.0
102 70.0
103 74.0
104 84.0
105 81.0
106 80.0
107 73.0
108 73.0
109 74.0
110 81.0
111 84.0
112 68.0
113 70.0
114 75.0
115 72.0
116 67.0
117 74.0
118 58.0
119 68.0
120 86.0
121 80.0
122 88.0
123 76.0
124 79.0
125 73.0
126 93.0
127 84.0
128 92.0
129 71.0
130 86.0
131 74.0
132 92.0
133 79.0
134 89.0
135 70.0
136 77.0
137 71.0
138 82.0
139 78.0
140 85.0
141 72.0
142 79.0
143 70.0
144 75.0
145 69.0
146 74.0
147 62.0
148 67.0
149 61.0
150 79.0
151 72.0
152 77.0
153 71.0
154 71.0
155 72.0
156 81.0
157 67.0
158 80.0
159 73.0
160 68.0
161 75.0
162 71.0
163 64.0
164 72.0
165 71.0
166 66.0
167 72.0
168 81.0
169 72.0
170 84.0
171 63.0
172 77.0
173 65.0
174 78.0
175 71.0
176 83.0
177 77.0
178 74.0
179 75.0
180 77.0
181 61.0
182 79.0
183 76.0
184 58.0
185 71.0
186 73.0
187 64.0
188 71.0
189 77.0
190 59.0
191 74.0
192 88.0
193 75.0
194 92.0
195 73.0
196 78.0
197 72.0
198 91.0
199 77.0
200 94.0
201 87.0
202 81.0
203 88.0
204 88.0
205 72.0
206 87.0
207 84.0
208 68.0
209 81.0
210 75.0
211 73.0
212 76.0
213 86.0
214 70.0
215 82.0
216 78.0
217 74.0
218 85.0
219 72.0
220 78.0
221 69.0
222 79.0
223 72.0
224 83.0
225 82.0
226 79.0
227 85.0
228 82.0
229 73.0
230 79.0
231 85.0
232 66.0
233 81.0
234 73.0
235 71.0
236 76.0
237 86.0
238 67.0
239 79.0
240 77.0
241 71.0
242 87.0
243 75.0
244 78.0
245 72.0
246 80.0
247 71.0
248 87.0
249 68.0
250 81.0
251 71.0
252 79.0
253 74.0
254 76.0
255 67.0
256 64.0
257 60.0
258 69.0
259 73.0
260 72.0
261 69.0
262 66.0
263 59.0
264 78.0
265 72.0
266 77.0
267 65.0
268 70.0
269 64.0
270 70.0
271 63.0
272 68.0
273 62.0
274 62.0
275 63.0
276 80.0
277 66.0
278 79.0
279 72.0
280 67.0
281 74.0
282 70.0
283 63.0
284 71.0
285 70.0
286 65.0
287 71.0
288 92.0
289 83.0
290 91.0
291 72.0
292 84.0
293 74.0
294 81.0
295 74.0
296 82.0
297 76.0
298 73.0
299 74.0
300 88.0
301 70.0
302 90.0
303 83.0
304 71.0
305 82.0
306 84.0
307 73.0
308 82.0
309 84.0
310 72.0
311 85.0
312 83.0
313 78.0
314 83.0
315 74.0
316 69.0
317 65.0
318 94.0
319 80.0
320 85.0
321 78.0
322 80.0
323 87.0
324 91.0
325 73.0
326 82.0
327 75.0
328 73.0
329 84.0
330 70.0
331 66.0
332 79.0
333 77.0
334 75.0
335 77.0
336 73.0
337 77.0
338 76.0
339 73.0
340 69.0
341 62.0
342 82.0
343 75.0
344 74.0
345 73.0
346 78.0
347 84.0
348 85.0
349 74.0
350 74.0
351 76.0
352 71.0
353 84.0
354 68.0
355 64.0
356 79.0
357 77.0
358 72.0
359 74.0
360 90.0
361 81.0
362 103.0
363 82.0
364 94.0
365 82.0
366 86.0
367 77.0
368 99.0
369 80.0
370 90.0
371 80.0
372 89.0
373 81.0
374 89.0
375 83.0
376 68.0
377 70.0
378 82.0
379 83.0
380 82.0
381 85.0
382 70.0
383 72.0
384 89.0
385 80.0
386 92.0
387 71.0
388 85.0
389 73.0
390 75.0
391 68.0
392 80.0
393 74.0
394 71.0
395 72.0
396 88.0
397 72.0
398 90.0
399 87.0
400 69.0
401 82.0
402 81.0
403 72.0
404 79.0
405 85.0
406 67.0
407 82.0
408 97.0
409 88.0
410 96.0
411 77.0
412 89.0
413 79.0
414 87.0
415 80.0
416 88.0
417 82.0
418 79.0
419 80.0
420 100.0
421 82.0
422 102.0
423 95.0
424 83.0
425 94.0
426 93.0
427 82.0
428 91.0
429 93.0
430 81.0
431 94.0
432 86.0
433 78.0
434 82.0
435 76.0
436 66.0
437 68.0
438 96.0
439 80.0
440 84.0
441 81.0
442 76.0
443 89.0
444 96.0
445 78.0
446 88.0
447 81.0
448 82.0
449 93.0
450 67.0
451 65.0
452 75.0
453 76.0
454 77.0
455 80.0
456 82.0
457 83.0
458 78.0
459 81.0
460 69.0
461 71.0
462 90.0
463 81.0
464 76.0
465 82.0
466 77.0
467 92.0
468 90.0
469 79.0
470 80.0
471 82.0
472 83.0
473 96.0
474 68.0
475 66.0
476 78.0
477 79.0
478 80.0
479 83.0
480 86.0
481 73.0
482 89.0
483 70.0
484 84.0
485 78.0
486 74.0
487 69.0
488 85.0
489 76.0
490 72.0
491 68.0
492 78.0
493 70.0
494 86.0
495 80.0
496 67.0
497 69.0
498 72.0
499 69.0
500 64.0
501 71.0
502 58.0
503 68.0
504 96.0
505 83.0
506 100.0
507 81.0
508 86.0
509 80.0
510 85.0
511 71.0
512 88.0
513 81.0
514 75.0
515 82.0
516 88.0
517 72.0
518 87.0
519 84.0
520 68.0
521 81.0
522 82.0
523 80.0
524 83.0
525 93.0
526 77.0
527 89.0
528 88.0
529 83.0
530 88.0
531 79.0
532 74.0
533 70.0
534 89.0
535 75.0
536 80.0
537 73.0
538 75.0
539 82.0
540 100.0
541 82.0
542 91.0
543 84.0
544 82.0
545 93.0
546 78.0
547 74.0
548 87.0
549 85.0
550 83.0
551 85.0
552 86.0
553 78.0
554 82.0
555 76.0
556 66.0
557 68.0
558 85.0
559 69.0
560 73.0
561 70.0
562 65.0
563 78.0
564 93.0
565 75.0
566 85.0
567 78.0
568 79.0
569 90.0
570 66.0
571 64.0
572 74.0
573 75.0
574 76.0
575 79.0
576 73.0
577 70.0
578 61.0
579 68.0
580 59.0
581 69.0
582 81.0
583 79.0
584 70.0
585 80.0
586 67.0
587 79.0
588 73.0
589 69.0
590 74.0
591 72.0
592 81.0
593 83.0
594 68.0
595 66.0
596 67.0
597 68.0
598 77.0
599 80.0
600 80.0
601 76.0
602 86.0
603 73.0
604 90.0
605 81.0
606 68.0
607 72.0
608 82.0
609 79.0
610 78.0
611 71.0
612 75.0
613 76.0
614 83.0
615 86.0
616 70.0
617 72.0
618 76.0
619 73.0
620 68.0
621 75.0
622 59.0
623 69.0
624 88.0
625 84.0
626 95.0
627 82.0
628 88.0
629 79.0
630 77.0
631 70.0
632 81.0
633 80.0
634 77.0
635 83.0
636 83.0
637 74.0
638 80.0
639 86.0
640 67.0
641 82.0
642 84.0
643 82.0
644 87.0
645 97.0
646 78.0
647 90.0
648 80.0
649 84.0
650 83.0
651 80.0
652 76.0
653 69.0
654 81.0
655 74.0
656 73.0
657 72.0
658 77.0
659 83.0
660 95.0
661 84.0
662 84.0
663 86.0
664 81.0
665 94.0
666 80.0
667 76.0
668 91.0
669 89.0
670 84.0
671 86.0
672 84.0
673 85.0
674 80.0
675 83.0
676 71.0
677 73.0
678 83.0
679 74.0
680 69.0
681 75.0
682 70.0
683 85.0
684 91.0
685 80.0
686 81.0
687 83.0
688 84.0
689 97.0
690 68.0
691 66.0
692 78.0
693 79.0
694 80.0
695 83.0
696 75.0
697 72.0
698 63.0
699 70.0
700 61.0
701 71.0
702 85.0
703 83.0
704 74.0
705 84.0
706 71.0
707 83.0
708 77.0
709 73.0
710 78.0
711 76.0
712 85.0
713 87.0
714 69.0
715 67.0
716 68.0
717 69.0
718 78.0
719 81.0
720 80.0
721 74.0
722 82.0
723 70.0
724 73.0
725 67.0
726 86.0
727 77.0
728 85.0
729 64.0
730 79.0
731 67.0
732 96.0
733 83.0
734 93.0
735 74.0
736 81.0
737 75.0
738 84.0
739 80.0
740 87.0
741 74.0
742 81.0
743 72.0
744 71.0
745 65.0
746 81.0
747 69.0
748 72.0
749 66.0
750 85.0
751 76.0
752 92.0
753 73.0
754 86.0
755 76.0
756 87.0
757 82.0
758 84.0
759 75.0
760 72.0
761 68.0
762 75.0
763 79.0
764 78.0
765 75.0
766 72.0
767 65.0
768 83.0
769 74.0
770 96.0
771 75.0
772 87.0
773 75.0
774 91.0
775 82.0
776 104.0
777 85.0
778 95.0
779 85.0
780 90.0
781 82.0
782 90.0
783 84.0
784 69.0
785 71.0
786 84.0
787 85.0
788 84.0
789 87.0
790 72.0
791 74.0
792 90.0
793 77.0
794 93.0
795 74.0
796 88.0
797 82.0
798 82.0
799 77.0
800 93.0
801 84.0
802 80.0
803 76.0
804 79.0
805 71.0
806 87.0
807 81.0
808 68.0
809 70.0
810 75.0
811 72.0
812 67.0
813 74.0
814 61.0
815 71.0
816 82.0
817 78.0
818 88.0
819 75.0
820 92.0
821 83.0
822 74.0
823 78.0
824 88.0
825 85.0
826 84.0
827 77.0
828 77.0
829 78.0
830 85.0
831 88.0
832 72.0
833 74.0
834 79.0
835 76.0
836 71.0
837 78.0
838 62.0
839 72.0
840 83.0
841 77.0
842 85.0
843 73.0
844 76.0
845 70.0
846 95.0
847 86.0
848 94.0
849 73.0
850 88.0
851 76.0
852 94.0
853 81.0
854 91.0
855 72.0
856 79.0
857 73.0
858 86.0
859 82.0
860 89.0
861 76.0
862 83.0
863 74.0
864 80.0
865 74.0
866 79.0
867 67.0
868 74.0
869 68.0
870 89.0
871 84.0
872 89.0
873 83.0
874 91.0
875 79.0
876 92.0
877 80.0
878 83.0
879 76.0
880 82.0
881 76.0
882 86.0
883 77.0
884 94.0
885 73.0
886 89.0
887 77.0
888 83.0
889 78.0
890 95.0
891 86.0
892 82.0
893 73.0
894 86.0
895 65.0
896 80.0
897 76.0
898 76.0
899 64.0
900 93.0
901 80.0
902 102.0
903 83.0
904 90.0
905 84.0
906 96.0
907 84.0
908 106.0
909 93.0
910 93.0
911 84.0
912 94.0
913 75.0
914 82.0
915 85.0
916 81.0
917 75.0
918 85.0
919 81.0
920 97.0
921 84.0
922 90.0
923 81.0
924 84.0
925 77.0
926 93.0
927 89.0
928 87.0
929 83.0
930 84.0
931 71.0
932 78.0
933 81.0
934 81.0
935 72.0
936 71.0
937 65.0
938 81.0
939 69.0
940 72.0
941 66.0
942 82.0
943 73.0
944 89.0
945 70.0
946 83.0
947 73.0
948 81.0
949 76.0
950 78.0
951 69.0
952 66.0
953 62.0
954 73.0
955 77.0
956 76.0
957 73.0
958 70.0
959 63.0
960 77.0
961 71.0
962 76.0
963 64.0
964 71.0
965 65.0
966 77.0
967 72.0
968 77.0
969 71.0
970 87.0
971 75.0
972 88.0
973 76.0
974 79.0
975 72.0
976 78.0
977 72.0
978 91.0
979 82.0
980 98.0
981 79.0
982 93.0
983 83.0
984 80.0
985 75.0
986 91.0
987 82.0
988 87.0
989 79.0
990 91.0
991 72.0
992 85.0
993 82.0
994 81.0
995 71.0
996 82.0
997 77.0
998 90.0
999 81.0
1000 78.0
1001 74.0
1002 93.0
1003 81.0
1004 94.0
1005 89.0
1006 90.0
1007 82.0
1008 83.0
1009 74.0
1010 71.0
1011 75.0
1012 78.0
1013 74.0
1014 74.0
1015 78.0
1016 85.0
1017 82.0
1018 78.0
1019 71.0
1020 81.0
1021 74.0
1022 81.0
1023 85.0
1024 84.0
1025 81.0
1026 73.0
1027 70.0
1028 67.0
1029 71.0
1030 78.0
1031 71.0
1032 84.0
1033 75.0
1034 97.0
1035 76.0
1036 88.0
1037 76.0
1038 83.0
1039 74.0
1040 96.0
1041 77.0
1042 87.0
1043 77.0
1044 91.0
1045 83.0
1046 91.0
1047 85.0
1048 70.0
1049 72.0
1050 86.0
1051 87.0
1052 86.0
1053 89.0
1054 74.0
1055 76.0
1056 78.0
1057 69.0
1058 86.0
1059 65.0
1060 81.0
1061 69.0
1062 72.0
1063 67.0
1064 84.0
1065 75.0
1066 85.0
1067 76.0
1068 89.0
1069 68.0
1070 80.0
1071 76.0
1072 76.0
1073 64.0
1074 86.0
1075 77.0
1076 93.0
1077 74.0
1078 88.0
1079 78.0
1080 81.0
1081 76.0
1082 92.0
1083 83.0
1084 94.0
1085 86.0
1086 98.0
1087 79.0
1088 89.0
1089 86.0
1090 85.0
1091 75.0
1092 80.0
1093 72.0
1094 79.0
1095 73.0
1096 70.0
1097 72.0
1098 85.0
1099 76.0
1100 83.0
1101 75.0
1102 85.0
1103 77.0
1104 84.0
1105 78.0
1106 63.0
1107 64.0
1108 64.0
1109 66.0
1110 78.0
1111 79.0
1112 77.0
1113 80.0
1114 73.0
1115 75.0
1116 79.0
1117 75.0
1118 73.0
1119 74.0
1120 79.0
1121 76.0
1122 74.0
1123 77.0
1124 62.0
1125 63.0
1126 67.0
1127 69.0
1128 80.0
1129 67.0
1130 83.0
1131 64.0
1132 78.0
1133 72.0
1134 71.0
1135 66.0
1136 82.0
1137 73.0
1138 69.0
1139 65.0
1140 80.0
1141 72.0
1142 88.0
1143 82.0
1144 69.0
1145 71.0
1146 76.0
1147 73.0
1148 68.0
1149 75.0
1150 62.0
1151 72.0
1152 85.0
1153 72.0
1154 94.0
1155 75.0
1156 82.0
1157 76.0
1158 82.0
1159 70.0
1160 92.0
1161 79.0
1162 85.0
1163 76.0
1164 86.0
1165 67.0
1166 81.0
1167 84.0
1168 80.0
1169 74.0
1170 77.0
1171 72.0
1172 85.0
1173 76.0
1174 73.0
1175 69.0
1176 83.0
1177 71.0
1178 84.0
1179 79.0
1180 94.0
1181 86.0
1182 87.0
1183 78.0
1184 74.0
1185 78.0
1186 81.0
1187 77.0
1188 80.0
1189 72.0
1190 79.0
1191 73.0
1192 70.0
1193 72.0
1194 74.0
1195 65.0
1196 72.0
1197 64.0
1198 82.0
1199 74.0
1200 81.0
1201 75.0
1202 62.0
1203 63.0
1204 63.0
1205 65.0
1206 69.0
1207 66.0
1208 60.0
1209 67.0
1210 63.0
1211 73.0
1212 70.0
1213 73.0
1214 67.0
1215 64.0
1216 62.0
1217 66.0
1218 68.0
1219 75.0
1220 62.0
1221 63.0
1222 56.0
1223 66.0
1224 74.0
1225 70.0
1226 80.0
1227 67.0
1228 84.0
1229 75.0
1230 65.0
1231 69.0
1232 79.0
1233 76.0
1234 75.0
1235 68.0
1236 77.0
1237 78.0
1238 85.0
1239 88.0
1240 72.0
1241 74.0
1242 78.0
1243 75.0
1244 70.0
1245 77.0
1246 61.0
1247 71.0
1248 75.0
1249 71.0
1250 87.0
1251 74.0
1252 80.0
1253 71.0
1254 72.0
1255 65.0
1256 81.0
1257 77.0
1258 78.0
1259 74.0
1260 75.0
1261 62.0
1262 79.0
1263 82.0
1264 82.0
1265 73.0
1266 67.0
1267 71.0
1268 78.0
1269 75.0
1270 71.0
1271 64.0
1272 73.0
1273 66.0
1274 73.0
1275 77.0
1276 87.0
1277 84.0
1278 76.0
1279 73.0
1280 72.0
1281 76.0
1282 83.0
1283 76.0
1284 76.0
1285 77.0
1286 75.0
1287 78.0
1288 71.0
1289 73.0
1290 70.0
1291 66.0
1292 64.0
1293 65.0
1294 78.0
1295 75.0
1296 73.0
1297 76.0
1298 60.0
1299 61.0
1300 65.0
1301 67.0
1302 67.0
1303 64.0
1304 58.0
1305 65.0
1306 61.0
1307 71.0
1308 72.0
1309 75.0
1310 69.0
1311 66.0
1312 64.0
1313 68.0
1314 70.0
1315 77.0
1316 61.0
1317 62.0
1318 55.0
1319 65.0
1320 77.0
1321 71.0
1322 79.0
1323 67.0
1324 70.0
1325 64.0
1326 84.0
1327 75.0
1328 83.0
1329 62.0
1330 77.0
1331 65.0
1332 83.0
1333 70.0
1334 80.0
1335 61.0
1336 68.0
1337 62.0
1338 73.0
1339 69.0
1340 76.0
1341 63.0
1342 70.0
1343 61.0
1344 69.0
1345 63.0
1346 68.0
1347 56.0
1348 61.0
1349 55.0
1350 73.0
1351 66.0
1352 71.0
1353 65.0
1354 75.0
1355 61.0
1356 74.0
1357 62.0
1358 65.0
1359 58.0
1360 66.0
1361 60.0
1362 81.0
1363 72.0
1364 84.0
1365 63.0
1366 77.0
1367 65.0
1368 78.0
1369 71.0
1370 83.0
1371 74.0
1372 77.0
1373 61.0
1374 79.0
1375 58.0
1376 73.0
1377 64.0
1378 71.0
1379 59.0
1380 77.0
1381 64.0
1382 81.0
1383 62.0
1384 67.0
1385 61.0
1386 80.0
1387 66.0
1388 83.0
1389 70.0
1390 77.0
1391 61.0
1392 76.0
1393 57.0
1394 64.0
1395 62.0
1396 65.0
1397 59.0
1398 71.0
1399 67.0
1400 78.0
1401 65.0
1402 71.0
1403 62.0
1404 72.0
1405 65.0
1406 76.0
1407 72.0
1408 75.0
1409 66.0
1410 72.0
1411 59.0
1412 66.0
1413 64.0
1414 69.0
1415 60.0
1416 80.0
1417 74.0
1418 82.0
1419 70.0
1420 73.0
1421 67.0
1422 92.0
1423 83.0
1424 91.0
1425 70.0
1426 85.0
1427 73.0
1428 91.0
1429 78.0
1430 88.0
1431 69.0
1432 76.0
1433 70.0
1434 83.0
1435 79.0
1436 86.0
1437 73.0
1438 80.0
1439 71.0
1440 77.0
1441 71.0
1442 76.0
1443 64.0
1444 71.0
1445 65.0
1446 86.0
1447 81.0
1448 86.0
1449 80.0
1450 88.0
1451 76.0
1452 89.0
1453 77.0
1454 80.0
1455 73.0
1456 79.0
1457 73.0
1458 84.0
1459 75.0
1460 92.0
1461 71.0
1462 87.0
1463 75.0
1464 81.0
1465 76.0
1466 93.0
1467 84.0
1468 80.0
1469 71.0
1470 84.0
1471 63.0
1472 78.0
1473 74.0
1474 74.0
1475 62.0
1476 80.0
1477 67.0
1478 89.0
1479 70.0
1480 77.0
1481 71.0
1482 83.0
1483 71.0
1484 93.0
1485 80.0
1486 80.0
1487 71.0
1488 81.0
1489 62.0
1490 69.0
1491 72.0
1492 68.0
1493 62.0
1494 74.0
1495 70.0
1496 86.0
1497 73.0
1498 79.0
1499 70.0
1500 73.0
1501 66.0
1502 82.0
1503 78.0
1504 76.0
1505 72.0
1506 73.0
1507 60.0
1508 67.0
1509 70.0
1510 70.0
1511 61.0
1512 69.0
1513 63.0
1514 68.0
1515 56.0
1516 61.0
1517 55.0
1518 70.0
1519 63.0
1520 68.0
1521 62.0
1522 69.0
1523 55.0
1524 68.0
1525 56.0
1526 63.0
1527 56.0
1528 64.0
1529 58.0
1530 74.0
1531 68.0
1532 73.0
1533 61.0
1534 68.0
1535 62.0
1536 75.0
1537 70.0
1538 75.0
1539 69.0
1540 74.0
1541 62.0
1542 75.0
1543 63.0
1544 68.0
1545 61.0
1546 67.0
1547 61.0
1548 78.0
1549 71.0
1550 77.0
1551 72.0
1552 78.0
1553 73.0
1554 79.0
1555 72.0
1556 76.0
1557 78.0
1558 72.0
1559 70.0
1560 80.0
1561 66.0
1562 80.0
1563 68.0
1564 80.0
1565 68.0
1566 82.0
1567 68.0
1568 79.0
1569 81.0
1570 69.0
1571 67.0
1572 72.0
1573 65.0
1574 73.0
1575 66.0
1576 70.0
1577 63.0
1578 71.0
1579 64.0
1580 71.0
1581 71.0
1582 65.0
1583 65.0
1584 80.0
1585 71.0
1586 83.0
1587 62.0
1588 76.0
1589 64.0
1590 69.0
1591 62.0
1592 74.0
1593 65.0
1594 77.0
1595 61.0
1596 79.0
1597 58.0
1598 74.0
1599 65.0
1600 72.0
1601 60.0
1602 75.0
1603 66.0
1604 83.0
1605 62.0
1606 78.0
1607 66.0
1608 69.0
1609 64.0
1610 81.0
1611 72.0
1612 72.0
1613 63.0
1614 76.0
1615 55.0
1616 69.0
1617 65.0
1618 65.0
1619 53.0
1620 72.0
1621 65.0
1622 71.0
1623 66.0
1624 77.0
1625 72.0
1626 78.0
1627 71.0
1628 82.0
1629 84.0
1630 75.0
1631 73.0
1632 76.0
1633 60.0
1634 67.0
1635 58.0
1636 71.0
1637 62.0
1638 69.0
1639 53.0
1640 73.0
1641 80.0
1642 59.0
1643 52.0
1644 74.0
1645 65.0
1646 63.0
1647 59.0
1648 67.0
1649 63.0
1650 61.0
1651 52.0
1652 65.0
1653 70.0
1654 58.0
1655 53.0
1656 87.0
1657 74.0
1658 91.0
1659 72.0
1660 77.0
1661 71.0
1662 79.0
1663 65.0
1664 82.0
1665 69.0
1666 88.0
1667 72.0
1668 87.0
1669 68.0
1670 75.0
1671 73.0
1672 76.0
1673 70.0
1674 82.0
1675 69.0
1676 91.0
1677 72.0
1678 79.0
1679 73.0
1680 79.0
1681 67.0
1682 89.0
1683 76.0
1684 83.0
1685 74.0
1686 84.0
1687 65.0
1688 70.0
1689 73.0
1690 69.0
1691 63.0
1692 85.0
1693 71.0
1694 85.0
1695 73.0
1696 90.0
1697 78.0
1698 92.0
1699 78.0
1700 93.0
1701 95.0
1702 82.0
1703 80.0
1704 87.0
1705 71.0
1706 78.0
1707 69.0
1708 82.0
1709 73.0
1710 80.0
1711 64.0
1712 81.0
1713 88.0
1714 69.0
1715 62.0
1716 76.0
1717 74.0
1718 68.0
1719 71.0
1720 69.0
1721 72.0
1722 66.0
1723 64.0
1724 70.0
1725 75.0
1726 69.0
1727 64.0
1728 79.0
1729 75.0
1730 86.0
1731 73.0
1732 79.0
1733 70.0
1734 71.0
1735 64.0
1736 75.0
1737 71.0
1738 83.0
1739 74.0
1740 80.0
1741 67.0
1742 73.0
1743 71.0
1744 76.0
1745 67.0
1746 72.0
1747 68.0
1748 84.0
1749 71.0
1750 77.0
1751 68.0
1752 69.0
1753 62.0
1754 78.0
1755 74.0
1756 76.0
1757 72.0
1758 73.0
1759 60.0
1760 66.0
1761 69.0
1762 69.0
1763 60.0
1764 73.0
1765 66.0
1766 74.0
1767 67.0
1768 78.0
1769 71.0
1770 79.0
1771 72.0
1772 82.0
1773 82.0
1774 78.0
1775 78.0
1776 81.0
1777 72.0
1778 70.0
1779 66.0
1780 76.0
1781 72.0
1782 70.0
1783 61.0
1784 73.0
1785 78.0
1786 65.0
1787 60.0
1788 72.0
1789 70.0
1790 64.0
1791 67.0
1792 67.0
1793 70.0
1794 64.0
1795 62.0
1796 70.0
1797 75.0
1798 66.0
1799 61.0
1800 70.0
1801 64.0
1802 80.0
1803 68.0
1804 71.0
1805 65.0
1806 73.0
1807 64.0
1808 80.0
1809 74.0
1810 72.0
1811 67.0
1812 69.0
1813 57.0
1814 62.0
1815 66.0
1816 65.0
1817 59.0
1818 71.0
1819 65.0
1820 70.0
1821 58.0
1822 63.0
1823 57.0
1824 63.0
1825 56.0
1826 61.0
1827 55.0
1828 73.0
1829 59.0
1830 72.0
1831 60.0
1832 63.0
1833 56.0
1834 64.0
1835 58.0
1836 82.0
1837 73.0
1838 81.0
1839 74.0
1840 71.0
1841 64.0
1842 72.0
1843 63.0
1844 78.0
1845 80.0
1846 74.0
1847 72.0
1848 70.0
1849 65.0
1850 70.0
1851 56.0
1852 81.0
1853 67.0
1854 72.0
1855 67.0
1856 78.0
1857 69.0
1858 57.0
1859 66.0
1860 64.0
1861 68.0
1862 67.0
1863 60.0
1864 73.0
1865 66.0
1866 65.0
1867 69.0
1868 76.0
1869 65.0
1870 59.0
1871 70.0
1872 67.0
1873 61.0
1874 77.0
1875 65.0
1876 68.0
1877 62.0
1878 78.0
1879 69.0
1880 85.0
1881 79.0
1882 77.0
1883 72.0
1884 74.0
1885 62.0
1886 69.0
1887 73.0
1888 72.0
1889 66.0
1890 76.0
1891 70.0
1892 75.0
1893 63.0
1894 70.0
1895 64.0
1896 76.0
1897 71.0
1898 76.0
1899 70.0
1900 86.0
1901 74.0
1902 87.0
1903 75.0
1904 78.0
1905 71.0
1906 77.0
1907 71.0
1908 79.0
1909 70.0
1910 86.0
1911 81.0
1912 68.0
1913 63.0
1914 79.0
1915 70.0
1916 75.0
1917 79.0
1918 73.0
1919 69.0
1920 67.0
1921 62.0
1922 75.0
1923 63.0
1924 78.0
1925 66.0
1926 79.0
1927 74.0
1928 75.0
1929 68.0
1930 56.0
1931 63.0
1932 61.0
1933 65.0
1934 72.0
1935 65.0
1936 68.0
1937 61.0
1938 68.0
1939 72.0
1940 71.0
1941 60.0
1942 54.0
1943 65.0
1944 68.0
1945 62.0
1946 67.0
1947 55.0
1948 60.0
1949 54.0
1950 69.0
1951 62.0
1952 67.0
1953 61.0
1954 68.0
1955 54.0
1956 67.0
1957 55.0
1958 62.0
1959 55.0
1960 63.0
1961 57.0
1962 76.0
1963 70.0
1964 75.0
1965 63.0
1966 70.0
1967 64.0
1968 77.0
1969 72.0
1970 77.0
1971 71.0
1972 76.0
1973 64.0
1974 77.0
1975 65.0
1976 70.0
1977 63.0
1978 69.0
1979 63.0
1980 68.0
1981 61.0
1982 67.0
1983 62.0
1984 68.0
1985 63.0
1986 69.0
1987 62.0
1988 66.0
1989 68.0
1990 62.0
1991 60.0
1992 78.0
1993 64.0
1994 78.0
1995 66.0
1996 78.0
1997 66.0
1998 80.0
1999 66.0
2000 77.0
2001 79.0
2002 67.0
2003 65.0
2004 70.0
2005 63.0
2006 71.0
2007 64.0
2008 68.0
2009 61.0
2010 69.0
2011 62.0
2012 69.0
2013 69.0
2014 63.0
2015 63.0
2016 90.0
2017 81.0
2018 89.0
2019 82.0
2020 80.0
2021 73.0
2022 81.0
2023 72.0
2024 87.0
2025 89.0
2026 84.0
2027 82.0
2028 82.0
2029 73.0
2030 89.0
2031 84.0
2032 80.0
2033 75.0
2034 91.0
2035 82.0
2036 79.0
2037 83.0
2038 76.0
2039 72.0
2040 71.0
2041 64.0
2042 70.0
2043 65.0
2044 79.0
2045 74.0
2046 80.0
2047 73.0
2048 80.0
2049 82.0
2050 73.0
2051 71.0
2052 86.0
2053 78.0
2054 78.0
2055 80.0
2056 80.0
2057 90.0
2058 84.0
2059 74.0
2060 74.0
2061 72.0
2062 72.0
2063 80.0
2064 81.0
2065 76.0
2066 81.0
2067 67.0
2068 82.0
2069 68.0
2070 73.0
2071 68.0
2072 90.0
2073 81.0
2074 69.0
2075 78.0
2076 73.0
2077 68.0
2078 81.0
2079 69.0
2080 82.0
2081 70.0
2082 83.0
2083 78.0
2084 82.0
2085 75.0
2086 61.0
2087 68.0
2088 84.0
2089 70.0
2090 84.0
2091 72.0
2092 92.0
2093 80.0
2094 94.0
2095 80.0
2096 83.0
2097 85.0
2098 80.0
2099 78.0
2100 89.0
2101 81.0
2102 81.0
2103 83.0
2104 72.0
2105 82.0
2106 70.0
2107 71.0
2108 60.0
2109 69.0
2110 69.0
2111 77.0
2112 73.0
2113 77.0
2114 76.0
2115 69.0
2116 74.0
2117 67.0
2118 66.0
2119 70.0
2120 85.0
2121 74.0
2122 67.0
2123 78.0
2124 63.0
2125 67.0
2126 74.0
2127 67.0
2128 72.0
2129 65.0
2130 72.0
2131 76.0
2132 75.0
2133 64.0
2134 57.0
2135 68.0
2136 72.0
2137 65.0
2138 73.0
2139 66.0
2140 80.0
2141 73.0
2142 81.0
2143 74.0
2144 72.0
2145 72.0
2146 76.0
2147 76.0
2148 83.0
2149 73.0
2150 75.0
2151 73.0
2152 64.0
2153 72.0
2154 66.0
2155 67.0
2156 58.0
2157 67.0
2158 69.0
2159 77.0
2160 85.0
2161 76.0
2162 98.0
2163 89.0
2164 81.0
2165 72.0
2166 94.0
2167 85.0
2168 84.0
2169 84.0
2170 77.0
2171 77.0
2172 85.0
2173 76.0
2174 88.0
2175 81.0
2176 71.0
2177 64.0
2178 76.0
2179 67.0
2180 84.0
2181 86.0
2182 77.0
2183 75.0
2184 84.0
2185 75.0
2186 83.0
2187 76.0
2188 74.0
2189 67.0
2190 75.0
2191 66.0
2192 87.0
2193 89.0
2194 80.0
2195 78.0
2196 82.0
2197 78.0
2198 92.0
2199 80.0
2200 92.0
2201 84.0
2202 79.0
2203 75.0
2204 87.0
2205 73.0
2206 87.0
2207 77.0
2208 77.0
2209 68.0
2210 90.0
2211 81.0
2212 76.0
2213 67.0
2214 89.0
2215 80.0
2216 84.0
2217 84.0
2218 79.0
2219 79.0
2220 80.0
2221 71.0
2222 88.0
2223 83.0
2224 74.0
2225 69.0
2226 86.0
2227 77.0
2228 87.0
2229 91.0
2230 82.0
2231 78.0
2232 76.0
2233 67.0
2234 83.0
2235 78.0
2236 71.0
2237 66.0
2238 82.0
2239 73.0
2240 84.0
2241 88.0
2242 79.0
2243 75.0
2244 74.0
2245 73.0
2246 79.0
2247 77.0
2248 79.0
2249 78.0
2250 71.0
2251 70.0
2252 72.0
2253 66.0
2254 72.0
2255 67.0
2256 76.0
2257 67.0
2258 79.0
2259 72.0
2260 65.0
2261 58.0
2262 70.0
2263 61.0
2264 73.0
2265 75.0
2266 70.0
2267 68.0
2268 79.0
2269 70.0
2270 87.0
2271 82.0
2272 73.0
2273 68.0
2274 85.0
2275 76.0
2276 76.0
2277 80.0
2278 73.0
2279 69.0
2280 65.0
2281 58.0
2282 64.0
2283 59.0
2284 70.0
2285 65.0
2286 71.0
2287 64.0
2288 75.0
2289 77.0
2290 68.0
2291 66.0
2292 83.0
2293 74.0
2294 78.0
2295 76.0
2296 80.0
2297 87.0
2298 78.0
2299 67.0
2300 71.0
2301 65.0
2302 69.0
2303 74.0
2304 87.0
2305 78.0
2306 86.0
2307 79.0
2308 77.0
2309 70.0
2310 78.0
2311 69.0
2312 84.0
2313 86.0
2314 81.0
2315 79.0
2316 84.0
2317 75.0
2318 91.0
2319 86.0
2320 82.0
2321 77.0
2322 93.0
2323 84.0
2324 81.0
2325 85.0
2326 78.0
2327 74.0
2328 74.0
2329 67.0
2330 73.0
2331 68.0
2332 82.0
2333 77.0
2334 83.0
2335 76.0
2336 83.0
2337 85.0
2338 76.0
2339 74.0
2340 95.0
2341 87.0
2342 87.0
2343 89.0
2344 89.0
2345 99.0
2346 90.0
2347 80.0
2348 80.0
2349 78.0
2350 78.0
2351 86.0
2352 81.0
2353 77.0
2354 81.0
2355 69.0
2356 80.0
2357 72.0
2358 73.0
2359 72.0
2360 76.0
2361 74.0
2362 72.0
2363 71.0
2364 83.0
2365 74.0
2366 86.0
2367 84.0
2368 74.0
2369 81.0
2370 86.0
2371 78.0
2372 83.0
2373 85.0
2374 75.0
2375 85.0
2376 79.0
2377 75.0
2378 79.0
2379 65.0
2380 78.0
2381 68.0
2382 69.0
2383 68.0
2384 72.0
2385 66.0
2386 68.0
2387 63.0
2388 77.0
2389 66.0
2390 80.0
2391 74.0
2392 66.0
2393 71.0
2394 80.0
2395 70.0
2396 77.0
2397 75.0
2398 67.0
2399 75.0
2400 88.0
2401 91.0
2402 76.0
2403 87.0
2404 80.0
2405 88.0
2406 88.0
2407 92.0
2408 77.0
2409 80.0
2410 80.0
2411 79.0
2412 79.0
2413 79.0
2414 80.0
2415 71.0
2416 91.0
2417 82.0
2418 89.0
2419 85.0
2420 88.0
2421 76.0
2422 96.0
2423 88.0
2424 80.0
2425 83.0
2426 71.0
2427 82.0
2428 80.0
2429 88.0
2430 83.0
2431 92.0
2432 80.0
2433 90.0
2434 83.0
2435 84.0
2436 71.0
2437 79.0
2438 77.0
2439 78.0
2440 88.0
2441 81.0
2442 81.0
2443 80.0
2444 75.0
2445 73.0
2446 83.0
2447 82.0
2448 90.0
2449 94.0
2450 82.0
2451 85.0
2452 91.0
2453 90.0
2454 93.0
2455 102.0
2456 90.0
2457 100.0
2458 94.0
2459 95.0
2460 82.0
2461 82.0
2462 87.0
2463 89.0
2464 90.0
2465 92.0
2466 90.0
2467 81.0
2468 85.0
2469 83.0
2470 84.0
2471 91.0
2472 85.0
2473 85.0
2474 86.0
2475 77.0
2476 94.0
2477 85.0
2478 82.0
2479 90.0
2480 91.0
2481 92.0
2482 91.0
2483 84.0
2484 83.0
2485 83.0
2486 91.0
2487 93.0
2488 82.0
2489 84.0
2490 102.0
2491 94.0
2492 94.0
2493 96.0
2494 85.0
2495 95.0
2496 88.0
2497 84.0
2498 88.0
2499 76.0
2500 87.0
2501 79.0
2502 80.0
2503 79.0
2504 83.0
2505 81.0
2506 79.0
2507 78.0
2508 79.0
2509 70.0
2510 82.0
2511 80.0
2512 70.0
2513 77.0
2514 90.0
2515 82.0
2516 87.0
2517 89.0
2518 79.0
2519 89.0
